<number of tasks>
28

<cycle time>
342

<task times>
1 70
2 59
3 33
4 6
5 1
6 27
7 17
8 62
9 31
10 53
11 21
12 19
13 108
14 52
15 5
16 8
17 97
18 8
19 47
20 67
21 17
22 8
23 3
24 21
25 107
26 3
27 2
28 72

<precedence relations>
1,2
1,3
1,4
1,5
1,8
1,19
1,21
1,22
1,23
1,24
1,26
2,6
2,17
3,28
4,28
5,28
6,7
7,18
8,9
9,10
10,11
10,12
11,15
12,13
13,14
13,16
14,28
15,28
16,28
17,28
18,28
19,20
20,28
21,28
22,28
23,28
24,25
25,28
26,27
27,28

<setup times forward>
1,5:4
1,21:11
2,5:4
2,9:11
2,10:11
2,11:11
2,12:11
2,13:11
2,14:4
2,15:4
2,16:4
2,17:4
2,20:11
2,21:11
2,25:4
3,5:4
3,7:11
3,9:11
3,10:11
3,11:11
3,12:11
3,13:11
3,14:4
3,15:4
3,16:4
3,17:4
3,18:11
3,20:11
3,21:11
3,25:4
3,28:4
4,5:4
4,7:11
4,9:11
4,10:11
4,11:11
4,12:11
4,13:11
4,14:4
4,15:4
4,16:4
4,17:4
4,18:11
4,20:11
4,21:11
4,25:4
4,28:4
5,2:4
5,3:4
5,4:4
5,6:4
5,7:15
5,8:4
5,9:15
5,10:15
5,11:15
5,12:15
5,13:15
5,18:15
5,19:4
5,20:15
5,21:15
5,22:4
5,23:4
5,24:4
5,26:4
5,27:4
6,5:4
6,7:11
6,9:11
6,10:11
6,11:11
6,12:11
6,13:11
6,14:4
6,15:4
6,16:4
6,17:4
6,20:11
6,21:11
6,25:4
7,3:11
7,4:11
7,5:15
7,8:11
7,14:15
7,15:15
7,16:15
7,17:15
7,19:11
7,22:11
7,23:11
7,24:11
7,25:15
7,26:11
7,27:11
8,5:4
8,7:11
8,9:11
8,17:4
8,18:11
8,20:11
8,21:11
8,25:4
9,2:11
9,3:11
9,4:11
9,5:15
9,6:11
9,17:15
9,19:11
9,22:11
9,23:11
9,24:11
9,25:15
9,26:11
9,27:11
10,2:11
10,3:11
10,4:11
10,5:15
10,6:11
10,17:15
10,19:11
10,22:11
10,23:11
10,24:11
10,25:15
10,26:11
10,27:11
11,2:11
11,3:11
11,4:11
11,5:15
11,6:11
11,14:15
11,15:15
11,16:15
11,17:15
11,19:11
11,22:11
11,23:11
11,24:11
11,25:15
11,26:11
11,27:11
12,2:11
12,3:11
12,4:11
12,5:15
12,6:11
12,15:15
12,17:15
12,19:11
12,22:11
12,23:11
12,24:11
12,25:15
12,26:11
12,27:11
13,2:11
13,3:11
13,4:11
13,5:15
13,6:11
13,14:15
13,15:15
13,16:15
13,17:15
13,19:11
13,22:11
13,23:11
13,24:11
13,25:15
13,26:11
13,27:11
14,2:4
14,3:4
14,4:4
14,6:4
14,7:15
14,11:15
14,18:15
14,19:4
14,20:15
14,21:15
14,22:4
14,23:4
14,24:4
14,26:4
14,27:4
15,2:4
15,3:4
15,4:4
15,6:4
15,7:15
15,12:15
15,13:15
15,18:15
15,19:4
15,20:15
15,21:15
15,22:4
15,23:4
15,24:4
15,26:4
15,27:4
16,2:4
16,3:4
16,4:4
16,6:4
16,7:15
16,11:15
16,18:15
16,19:4
16,20:15
16,21:15
16,22:4
16,23:4
16,24:4
16,26:4
16,27:4
17,3:4
17,4:4
17,6:4
17,7:15
17,8:4
17,9:15
17,10:15
17,11:15
17,12:15
17,13:15
17,18:15
17,19:4
17,20:15
17,21:15
17,22:4
17,23:4
17,24:4
17,26:4
17,27:4
18,3:11
18,4:11
18,5:15
18,8:11
18,14:15
18,15:15
18,16:15
18,17:15
18,19:11
18,22:11
18,23:11
18,24:11
18,25:15
18,26:11
18,27:11
18,28:15
19,5:4
19,7:11
19,9:11
19,10:11
19,11:11
19,12:11
19,13:11
19,14:4
19,15:4
19,16:4
19,17:4
19,18:11
19,20:11
19,21:11
19,25:4
20,2:11
20,3:11
20,4:11
20,5:15
20,6:11
20,8:11
20,14:15
20,15:15
20,16:15
20,17:15
20,22:11
20,23:11
20,24:11
20,25:15
20,26:11
20,27:11
20,28:15
21,2:11
21,3:11
21,4:11
21,5:15
21,6:11
21,8:11
21,14:15
21,15:15
21,16:15
21,17:15
21,19:11
21,22:11
21,23:11
21,24:11
21,25:15
21,26:11
21,27:11
21,28:15
22,5:4
22,7:11
22,9:11
22,10:11
22,11:11
22,12:11
22,13:11
22,14:4
22,15:4
22,16:4
22,17:4
22,18:11
22,20:11
22,21:11
22,25:4
22,28:4
23,5:4
23,7:11
23,9:11
23,10:11
23,11:11
23,12:11
23,13:11
23,14:4
23,15:4
23,16:4
23,17:4
23,18:11
23,20:11
23,21:11
23,25:4
23,28:4
24,5:4
24,7:11
24,9:11
24,10:11
24,11:11
24,12:11
24,13:11
24,14:4
24,15:4
24,16:4
24,17:4
24,18:11
24,20:11
24,21:11
24,25:4
25,2:4
25,3:4
25,4:4
25,6:4
25,7:15
25,8:4
25,9:15
25,10:15
25,11:15
25,12:15
25,13:15
25,18:15
25,19:4
25,20:15
25,21:15
25,22:4
25,23:4
25,26:4
25,27:4
26,5:4
26,7:11
26,9:11
26,10:11
26,11:11
26,12:11
26,13:11
26,14:4
26,15:4
26,16:4
26,17:4
26,18:11
26,20:11
26,21:11
26,25:4
27,5:4
27,7:11
27,9:11
27,10:11
27,11:11
27,12:11
27,13:11
27,14:4
27,15:4
27,16:4
27,17:4
27,18:11
27,20:11
27,21:11
27,25:4
27,28:4

<setup times backward>
2,5:4
2,14:4
2,15:4
2,16:4
2,25:4
3,5:4
3,14:4
3,15:4
3,16:4
3,17:4
3,25:4
4,5:4
4,14:4
4,15:4
4,16:4
4,17:4
4,25:4
6,5:4
6,14:4
6,15:4
6,16:4
6,17:4
6,25:4
7,1:11
7,2:11
7,3:11
7,4:11
7,5:15
7,6:11
7,8:11
7,14:15
7,15:15
7,16:15
7,17:15
7,19:11
7,22:11
7,23:11
7,24:11
7,25:15
7,26:11
7,27:11
8,5:4
8,17:4
8,25:4
9,1:11
9,2:11
9,3:11
9,4:11
9,5:15
9,6:11
9,8:11
9,17:15
9,19:11
9,22:11
9,23:11
9,24:11
9,25:15
9,26:11
9,27:11
10,1:11
10,2:11
10,3:11
10,4:11
10,5:15
10,6:11
10,8:11
10,17:15
10,19:11
10,22:11
10,23:11
10,24:11
10,25:15
10,26:11
10,27:11
11,1:11
11,2:11
11,3:11
11,4:11
11,5:15
11,6:11
11,8:11
11,14:15
11,16:15
11,17:15
11,19:11
11,22:11
11,23:11
11,24:11
11,25:15
11,26:11
11,27:11
12,1:11
12,2:11
12,3:11
12,4:11
12,5:15
12,6:11
12,8:11
12,15:15
12,17:15
12,19:11
12,22:11
12,23:11
12,24:11
12,25:15
12,26:11
12,27:11
13,1:11
13,2:11
13,3:11
13,4:11
13,5:15
13,6:11
13,8:11
13,15:15
13,17:15
13,19:11
13,22:11
13,23:11
13,24:11
13,25:15
13,26:11
13,27:11
18,1:11
18,2:11
18,3:11
18,4:11
18,5:15
18,6:11
18,8:11
18,14:15
18,15:15
18,16:15
18,17:15
18,19:11
18,22:11
18,23:11
18,24:11
18,25:15
18,26:11
18,27:11
19,5:4
19,14:4
19,15:4
19,16:4
19,17:4
19,25:4
20,1:11
20,2:11
20,3:11
20,4:11
20,5:15
20,6:11
20,8:11
20,14:15
20,15:15
20,16:15
20,17:15
20,19:11
20,22:11
20,23:11
20,24:11
20,25:15
20,26:11
20,27:11
21,1:11
21,2:11
21,3:11
21,4:11
21,5:15
21,6:11
21,8:11
21,14:15
21,15:15
21,16:15
21,17:15
21,19:11
21,22:11
21,23:11
21,24:11
21,25:15
21,26:11
21,27:11
22,5:4
22,14:4
22,15:4
22,16:4
22,17:4
22,25:4
23,5:4
23,14:4
23,15:4
23,16:4
23,17:4
23,25:4
24,5:4
24,14:4
24,15:4
24,16:4
24,17:4
26,5:4
26,14:4
26,15:4
26,16:4
26,17:4
26,25:4
27,5:4
27,14:4
27,15:4
27,16:4
27,17:4
27,25:4

<end>

<optimal SALBP-1 value>
3


<rand seed>
467321153

